log/Reading instance from file data/g04.dat
Number of nodes: 71
Number of edges: 260
initialize CPLEX ... done.
Calling CPLEX solve ...
Version identifier: 12.10.0.0 | 2019-11-26 | 843d4de
CPXPARAM_Threads                                 1
CPXPARAM_TimeLimit                               3600
CPXPARAM_WorkMem                                 8192
Tried aggregator 2 times.
MIP Presolve eliminated 107 rows and 141 columns.
MIP Presolve modified 623 coefficients.
Aggregator did 37 substitutions.
Reduced MIP has 590 rows, 932 columns, and 3107 nonzeros.
Reduced MIP has 484 binaries, 448 generals, 0 SOSs, and 0 indicators.
Presolve time = 0.01 sec. (3.83 ticks)
Found incumbent of value 17785.000000 after 0.02 sec. (9.73 ticks)
Probing fixed 1 vars, tightened 92 bounds.
Probing time = 0.00 sec. (1.68 ticks)
Cover probing fixed 0 vars, tightened 7 bounds.
Tried aggregator 1 time.
Detecting symmetries...
MIP Presolve eliminated 1 rows and 1 columns.
Reduced MIP has 589 rows, 931 columns, and 3103 nonzeros.
Reduced MIP has 483 binaries, 448 generals, 0 SOSs, and 0 indicators.
Presolve time = 0.00 sec. (1.95 ticks)
Probing time = 0.00 sec. (1.30 ticks)
Cover probing fixed 0 vars, tightened 62 bounds.
Clique table members: 449.
MIP emphasis: balance optimality and feasibility.
MIP search method: dynamic search.
Parallel mode: none, using 1 thread.
Root relaxation solution time = 0.01 sec. (6.63 ticks)

        Nodes                                         Cuts/
   Node  Left     Objective  IInf  Best Integer    Best Bound    ItCnt     Gap

*     0+    0                        17785.0000        0.0000           100.00%
      0     0     1801.7714    46    17785.0000     1801.7714      311   89.87%
      0     0     1852.2411    46    17785.0000     Cuts: 102      390   89.59%
      0     0     2067.0639    46    17785.0000      Cuts: 59      506   88.38%
      0     0     2186.3396    46    17785.0000      Cuts: 46      600   87.71%
      0     0     2244.1681    46    17785.0000      Cuts: 19      690   87.38%
      0     0     2278.3638    46    17785.0000      Cuts: 28      751   87.19%
Detecting symmetries...
      0     0     2364.8932    46    17785.0000      Cuts: 22      806   86.70%
      0     0     2422.7381    46    17785.0000      Cuts: 20      888   86.38%
      0     0     2442.7269    46    17785.0000      Cuts: 18      934   86.27%
      0     0     2464.3601    46    17785.0000      Cuts: 32      997   86.14%
      0     0     2519.1374    46    17785.0000       Cuts: 9     1069   85.84%
      0     0     2556.2147    46    17785.0000      Cuts: 28     1155   85.63%
      0     0     2564.8898    46    17785.0000      Cuts: 31     1212   85.58%
      0     0     2598.4665    46    17785.0000      Cuts: 22     1285   85.39%
      0     0     2615.7665    46    17785.0000      Cuts: 22     1342   85.29%
      0     0     2633.2477    46    17785.0000      Cuts: 21     1380   85.19%
      0     0     2659.0117    46    17785.0000      Cuts: 28     1444   85.05%
      0     0     2663.6307    46    17785.0000      Cuts: 35     1477   85.02%
      0     0     2667.6375    46    17785.0000      Cuts: 25     1514   85.00%
      0     0     2677.4988    46    17785.0000      Cuts: 19     1591   84.95%
      0     0     2687.3199    46    17785.0000      Cuts: 15     1638   84.89%
      0     0     2700.3984    46    17785.0000      Cuts: 21     1710   84.82%
      0     0     2711.1004    46    17785.0000      Cuts: 16     1808   84.76%
      0     0     2717.2872    46    17785.0000      Cuts: 31     1868   84.72%
      0     0     2720.9644    46    17785.0000      Cuts: 10     1884   84.70%
      0     0     2723.3958    46    17785.0000      Cuts: 18     1916   84.69%
      0     0     2724.8111    46    17785.0000      Cuts: 20     1945   84.68%
      0     0     2726.9133    46    17785.0000      Cuts: 13     1992   84.67%
      0     0     2727.1977    46    17785.0000      Cuts: 12     2031   84.67%
      0     0     2729.2138    46    17785.0000       Cuts: 5     2057   84.65%
      0     0     2732.1783    46    17785.0000      Cuts: 18     2085   84.64%
      0     0     2733.5386    46    17785.0000      Cuts: 21     2119   84.63%
      0     0     2735.0913    46    17785.0000      Cuts: 17     2177   84.62%
      0     0     2736.0101    46    17785.0000      Cuts: 19     2203   84.62%
      0     0     2737.0521    46    17785.0000      Cuts: 15     2246   84.61%
*     0+    0                        15881.0000     2737.0521            82.77%
      0     0  -1.00000e+75     0    15881.0000     2737.0521     2246   82.77%
      0     0     2743.3481    46    15881.0000      Cuts: 14     2299   82.73%
      0     0     2747.7916    46    15881.0000      Cuts: 18     2380   82.70%
      0     0     2750.2797    46    15881.0000      Cuts: 15     2453   82.68%
      0     0     2750.6166    46    15881.0000      Cuts: 30     2483   82.68%
*     0+    0                        13943.0000     2750.6166            80.27%
*     0+    0                        12218.0000     2750.6166            77.49%
*     0+    0                        10819.0000     2750.6166            74.58%
      0     0  -1.00000e+75     0    10819.0000     2750.6166     2483   74.58%
Detecting symmetries...
      0     2     2750.6166   180    10819.0000     2750.6243     2483   74.58%
Elapsed time = 0.40 sec. (418.30 ticks, tree = 0.01 MB, solutions = 5)
*    20+   20                         4231.0000     2750.7065            34.99%
     61    63     3664.6007    58     4231.0000     2750.7065     7342   34.99%
*    90+   79                         4095.0000     2760.3521            32.59%
    179   159     3220.8212   112     4095.0000     2760.7549    11331   32.58%
*   190+  137                         3610.0000     2760.7549            23.52%
*   190+  132                         3544.0000     2760.7549            22.10%
*   190+  132                         3541.0000     2760.7549            22.03%
*   190+  130                         3507.0000     2760.7549            21.28%
    254   184     2827.5420   112     3507.0000     2773.8448    14234   20.91%
    364   280     2940.7998   121     3507.0000     2781.7115    18833   20.68%
    508   397     3070.1936   120     3507.0000     2793.6542    23394   20.34%

Performing restart 1

Repeating presolve.
Tried aggregator 2 times.
MIP Presolve eliminated 8 rows and 81 columns.
MIP Presolve modified 532 coefficients.
Aggregator did 2 substitutions.
Reduced MIP has 579 rows, 848 columns, and 2657 nonzeros.
Reduced MIP has 477 binaries, 371 generals, 0 SOSs, and 0 indicators.
Presolve time = 0.00 sec. (3.43 ticks)
Tried aggregator 1 time.
MIP Presolve eliminated 1 rows and 1 columns.
MIP Presolve modified 56 coefficients.
Reduced MIP has 577 rows, 847 columns, and 2609 nonzeros.
Reduced MIP has 476 binaries, 371 generals, 0 SOSs, and 0 indicators.
Presolve time = 0.00 sec. (2.07 ticks)
Represolve time = 0.01 sec. (12.78 ticks)
    529     0     2916.1090   173     3507.0000     Cuts: 124    24589   16.85%
    529     0     3072.9701   173     3507.0000      Cuts: 96    24818   12.38%
    529     0     3159.6047   173     3507.0000     Cuts: 152    25015    9.91%
*   529+    0                         3479.0000     3159.6047             9.18%
*   529+    0                         3344.0000     3159.6047             5.51%
*   529+    0                         3307.0000     3159.6047             4.46%
*   529+    0                         3292.0000     3159.6047             4.02%
    529     0  -1.00000e+75     0     3292.0000     3159.6047    25015    4.02%

Repeating presolve.
Tried aggregator 2 times.
MIP Presolve eliminated 220 rows and 397 columns.
MIP Presolve added 10 rows and 0 columns.
MIP Presolve modified 79 coefficients.
Aggregator did 25 substitutions.
Reduced MIP has 342 rows, 425 columns, and 1388 nonzeros.
Reduced MIP has 256 binaries, 169 generals, 0 SOSs, and 0 indicators.
Presolve time = 0.00 sec. (2.39 ticks)
Tried aggregator 1 time.
MIP Presolve eliminated 3 rows and 3 columns.
MIP Presolve modified 31 coefficients.
Reduced MIP has 339 rows, 422 columns, and 1374 nonzeros.
Reduced MIP has 253 binaries, 169 generals, 0 SOSs, and 0 indicators.
Presolve time = 0.00 sec. (1.03 ticks)
Represolve time = 0.02 sec. (11.74 ticks)
    529     0     3205.9379   123     3292.0000     Cuts: 168    25524    2.61%
    529     0     3235.4908   123     3292.0000     Cuts: 123    25695    1.72%
    529     0     3277.0102   123     3292.0000     Cuts: 144    25863    0.46%

Repeating presolve.
Tried aggregator 2 times.
MIP Presolve eliminated 120 rows and 158 columns.
MIP Presolve added 8 rows and 0 columns.
MIP Presolve modified 60 coefficients.
Aggregator did 19 substitutions.
Reduced MIP has 208 rows, 245 columns, and 744 nonzeros.
Reduced MIP has 144 binaries, 101 generals, 0 SOSs, and 0 indicators.
Presolve time = 0.00 sec. (1.50 ticks)
Tried aggregator 2 times.
MIP Presolve eliminated 2 rows and 3 columns.
MIP Presolve modified 41 coefficients.
Aggregator did 3 substitutions.
Reduced MIP has 203 rows, 239 columns, and 733 nonzeros.
Reduced MIP has 139 binaries, 100 generals, 0 SOSs, and 0 indicators.
Presolve time = 0.00 sec. (0.58 ticks)
Tried aggregator 1 time.
MIP Presolve modified 22 coefficients.
Reduced MIP has 203 rows, 239 columns, and 733 nonzeros.
Reduced MIP has 139 binaries, 100 generals, 0 SOSs, and 0 indicators.
Presolve time = 0.00 sec. (0.51 ticks)
Represolve time = 0.02 sec. (11.12 ticks)
    529     0     3288.0000   108     3292.0000     Cuts: 112    26157    0.12%
    529     0        cutoff           3292.0000                  26157    0.00%

GUB cover cuts applied:  26
Cover cuts applied:  8
Implied bound cuts applied:  15
Flow cuts applied:  75
Mixed integer rounding cuts applied:  51
Zero-half cuts applied:  12
Lift and project cuts applied:  24
Gomory fractional cuts applied:  4

Root node processing (before b&c):
  Real time             =    0.40 sec. (418.37 ticks)
Sequential b&c:
  Real time             =    1.37 sec. (1606.14 ticks)
                          ------------
Total (root+branch&cut) =    1.77 sec. (2024.52 ticks)
SOLUTION:

x(0,52)[0..1]  = 1
x(1,4)[0..1]  = 1
x(1,6)[0..1]  = 1
x(2,13)[0..1]  = 1
x(2,33)[0..1]  = 1
x(8,34)[0..1]  = 1
x(8,62)[0..1]  = 1
x(9,17)[0..1]  = 1
x(11,14)[0..1]  = 1
x(11,23)[0..1]  = 1
x(15,16)[0..1]  = 1
x(15,69)[0..1]  = 1
x(23,49)[0..1]  = 1
x(26,38)[0..1]  = 1
x(38,48)[0..1]  = 1
x(48,68)[0..1]  = 1
x(57,66)[0..1]  = 1
x(58,65)[0..1]  = 1
x(57,1)[0..1]  = 1
x(58,2)[0..1]  = 1
x(49,5)[0..1]  = 1
x(8,7)[0..1]  = 1
x(51,8)[0..1]  = 1
x(13,9)[0..1]  = 1
x(48,10)[0..1]  = 1
x(22,11)[0..1]  = 1
x(65,15)[0..1]  = 1
x(26,22)[0..1]  = 1
x(51,26)[0..1]  = 1
x(68,43)[0..1]  = 1
x(52,51)[0..1]  = 1
x(64,57)[0..1]  = 1
x(66,58)[0..1]  = 1
x(62,60)[0..1]  = 1
x(68,64)[0..1]  = 1
z(1)[0..1]  = 1
z(2)[0..1]  = 1
z(4)[0..1]  = 1
z(5)[0..1]  = 1
z(6)[0..1]  = 1
z(7)[0..1]  = 1
z(8)[0..1]  = 1
z(9)[0..1]  = 1
z(10)[0..1]  = 1
z(11)[0..1]  = 1
z(13)[0..1]  = 1
z(14)[0..1]  = 1
z(15)[0..1]  = 1
z(16)[0..1]  = 1
z(17)[0..1]  = 1
z(22)[0..1]  = 1
z(23)[0..1]  = 1
z(26)[0..1]  = 1
z(33)[0..1]  = 1
z(34)[0..1]  = 1
z(38)[0..1]  = 1
z(43)[0..1]  = 1
z(48)[0..1]  = 1
z(49)[0..1]  = 1
z(51)[0..1]  = 1
z(52)[0..1]  = 1
z(57)[0..1]  = 1
z(58)[0..1]  = 1
z(60)[0..1]  = 1
z(62)[0..1]  = 1
z(64)[0..1]  = 1
z(65)[0..1]  = 1
z(66)[0..1]  = 1
z(68)[0..1]  = 1
z(69)[0..1]  = 1


CPLEX finished.

CPLEX status: Optimal
Branch-and-Bound nodes: 529
Objective value: 3292
CPU time: 1.76

